NAME : n40w140.003.476.tour
COMMENT : Length = 476
COMMENT : Found by LKH [Keld Helsgaun] Tue May  2 05:47:17 2017
TYPE : TOUR
DIMENSION : 41
TOUR_SECTION
1
17
2
12
32
31
36
11
10
35
8
39
18
24
28
3
25
33
13
26
23
15
6
30
7
5
27
4
9
21
20
38
37
22
34
14
29
40
41
16
19
-1
EOF
